(set-info :status unsat) ; swine result
(set-logic ALL)
(declare-fun i1 () Int)
(declare-fun i7 () Int)
(declare-fun i3 () Int)
(declare-fun it1 () Int)
(declare-fun it2 () Int)
(declare-fun i2 () Int)
(declare-fun it3 () Int)
(declare-fun it4 () Int)
(declare-fun i4 () Int)
(declare-fun it5 () Int)
(declare-fun i5 () Int)
(declare-fun it6 () Int)
(declare-fun i6 () Int)
(declare-fun it7 () Int)
(declare-fun it81 () Int)
(declare-fun it160 () Int)
(declare-fun it190 () Int)
(declare-fun it425 () Int)
(declare-fun it589 () Int)
(declare-fun it424 () Int)
(declare-fun it373 () Int)
(declare-fun it15 () Int)
(declare-fun it588 () Int)
(declare-fun it598 () Int)
(declare-fun it599 () Int)
(declare-fun it600 () Int)
(declare-fun it601 () Int)
(declare-fun it602 () Int)
(declare-fun it603 () Int)
(declare-fun it604 () Int)
(declare-fun it664 () Int)
(declare-fun it665 () Int)
(declare-fun it666 () Int)
(declare-fun it667 () Int)
(declare-fun it668 () Int)
(declare-fun it669 () Int)
(declare-fun it670 () Int)
(assert (and (> i3 0) (> i7 0) (= (+ i1 (- 1)) 0)))
(assert (= (+ it1 (- 2)) 0))
(assert (= (+ (* i2 (- 1)) it2 (- 1)) 0))
(assert (= (+ (* i3 (- 1)) it3) 0))
(assert (= (+ (* i4 (- 1)) it4) 0))
(assert (= (+ (* i5 (- 1)) it5) 0))
(assert (= (+ (* i6 (- 1)) it6) 0))
(assert (= (+ it7 (* i7 (- 1))) 0))
(assert (let ((a!1 (+ (* (* it190 it81) (+ it589 (- 1)) it425 (- 2))
              (* (* it190 it81) (+ it425 (- 1)) (- 2))
              it7))
      (a!4 (+ (* (* it190 it81) (+ it425 (- 1)) (- 2)) it7))
      (a!7 (+ (* (* it190 it81) (+ it589 (- 1)) it425 (- 2)) it7))
      (a!13 (+ (* (* it190 it81) (+ it589 (- 1)) it425 (- 2))
               (* it588 (- 2))
               (* (* it190 it81) (+ it425 (- 1)) (- 2))
               it7
               (* (+ it373 (- 1)) it424 (- 2))
               (* it424 (- 2))
               (* it15 (- 2))
               (* (* it373 it424) (+ it425 (- 1)) (- 2))
               (* (* it190 it81) (- 2))
               (* (* it373 it424) (+ it589 (- 1)) it425 (- 2))))
      (a!18 (+ (+ it7 (* it81 (+ it190 (- 1)) (- 2)))
               (* it160 (- 2))
               (* it81 (- 2))))
      (a!19 (+ (+ it7 (* (+ it373 (- 1)) it424 (- 2))) (* it424 (- 2))))
      (a!22 (+ (+ it7 (* it424 (- 2))) (* (* it190 it81) (- 2))))
      (a!30 (+ (* it588 (- 2))
               (* (* it190 it81) (+ it425 (- 1)) (- 2))
               it7
               (* (+ it373 (- 1)) it424 (- 2))
               (* it424 (- 2))
               (* it15 (- 2))
               (* (* it373 it424) (+ it425 (- 1)) (- 2))
               (* (* it190 it81) (- 2))))
      (a!34 (+ (+ it7 (* it81 (+ it190 (- 1)) (- 2))) (* it81 (- 2))))
      (a!38 (> (+ (+ it7 (* it81 (- 2))) 2) 0))
      (a!40 (+ (+ it7 (* (* it190 it81) (- 2))) (- 1)))
      (a!46 (> (+ it7 (* (* it190 it81) (- 2))) 0))
      (a!55 (+ (+ it7 (* it424 (- 2))) (* it15 (- 2)) (* (* it190 it81) (- 2))))
      (a!56 (> (+ (+ it7 (* it160 (- 2)) (* it81 (- 2))) 3) 0))
      (a!57 (> (+ (+ it7 (* it160 (- 2)) (* it81 (- 2))) 2) 0))
      (a!58 (> (+ (+ it7 (* it81 (- 2))) 1) 0))
      (a!59 (+ (+ it7 (* it81 (+ it190 (- 1)) (- 2))) (- 1)))
      (a!63 (+ (+ it7 (* (+ it373 (- 1)) it424 (- 2)))
               (* (* it190 it81) (- 2))
               (- 1))))
(let ((a!2 (+ (+ a!1 (* (+ it373 (- 1)) it424 (- 2))) (* it424 (- 2))))
      (a!5 (+ a!4
              (* it160 (- 2))
              (* (* it373 it424) (+ it425 (- 1)) (- 2))
              (* it81 (- 2))))
      (a!6 (+ (+ a!1 (* (+ it373 (- 1)) it424 (- 2)))
              (* (* it373 it424) (+ it425 (- 1)) (- 2))
              (* (* it190 it81) (- 2))
              (* (* it373 it424) (+ it589 (- 1)) it425 (- 2))
              (- 1)))
      (a!8 (+ (+ a!7 (* (+ it373 (- 1)) it424 (- 2))) (* it424 (- 2))))
      (a!10 (+ (+ a!7 (* it81 (+ it190 (- 1)) (- 2)))
               (* it160 (- 2))
               (* it81 (- 2))
               (* (* it373 it424) (+ it589 (- 1)) it425 (- 2))))
      (a!11 (+ a!4 (* (* it373 it424) (+ it425 (- 1)) (- 2))))
      (a!14 (+ (+ a!4 (* it424 (- 2)))
               (* (* it373 it424) (+ it425 (- 1)) (- 2))
               (* (* it190 it81) (- 2))))
      (a!15 (+ (+ a!1 (* it81 (+ it190 (- 1)) (- 2)))
               (* (* it373 it424) (+ it425 (- 1)) (- 2))))
      (a!17 (+ (+ a!1 (* it81 (+ it190 (- 1)) (- 2)))
               (* it160 (- 2))
               (* (* it373 it424) (+ it425 (- 1)) (- 2))
               (* it81 (- 2))
               (* (* it373 it424) (+ it589 (- 1)) it425 (- 2))))
      (a!20 (+ (+ a!19 (* (* it190 it81) (- 2))) 1))
      (a!21 (+ (+ a!7 (* it424 (- 2)))
               (* (* it190 it81) (- 2))
               (* (* it373 it424) (+ it589 (- 1)) it425 (- 2))))
      (a!23 (+ a!1 (* (* it373 it424) (+ it425 (- 1)) (- 2))))
      (a!25 (+ (+ a!4 (* it81 (+ it190 (- 1)) (- 2)))
               (* (* it373 it424) (+ it425 (- 1)) (- 2))))
      (a!27 (+ (+ a!7 (* it424 (- 2)))
               (* it15 (- 2))
               (* (* it190 it81) (- 2))
               (* (* it373 it424) (+ it589 (- 1)) it425 (- 2))))
      (a!29 (+ (+ a!4 (* it424 (- 2)))
               (* it15 (- 2))
               (* (* it373 it424) (+ it425 (- 1)) (- 2))
               (* (* it190 it81) (- 2))))
      (a!31 (+ (+ a!4 (* it81 (+ it190 (- 1)) (- 2)))
               (* it160 (- 2))
               (* (* it373 it424) (+ it425 (- 1)) (- 2))
               (* it81 (- 2))))
      (a!33 (+ (+ a!1 (* it424 (- 2)))
               (* it15 (- 2))
               (* (* it373 it424) (+ it425 (- 1)) (- 2))
               (* (* it190 it81) (- 2))
               (* (* it373 it424) (+ it589 (- 1)) it425 (- 2))))
      (a!36 (+ (+ a!4 (* (+ it373 (- 1)) it424 (- 2)))
               (* (* it373 it424) (+ it425 (- 1)) (- 2))
               (* (* it190 it81) (- 2))
               (- 1)))
      (a!37 (+ (+ a!7 (* it81 (+ it190 (- 1)) (- 2)))
               (* it81 (- 2))
               (* (* it373 it424) (+ it589 (- 1)) it425 (- 2))))
      (a!39 (+ a!7
               (* it81 (- 2))
               (* (* it373 it424) (+ it589 (- 1)) it425 (- 2))))
      (a!41 (+ (+ a!1 (* it424 (- 2)))
               (* (* it373 it424) (+ it425 (- 1)) (- 2))
               (* (* it190 it81) (- 2))
               (* (* it373 it424) (+ it589 (- 1)) it425 (- 2))))
      (a!42 (+ a!19 (* it15 (- 2)) (* (* it190 it81) (- 2))))
      (a!44 (+ (+ a!4 (* (+ it373 (- 1)) it424 (- 2))) (* it424 (- 2))))
      (a!47 (+ (+ a!19 (* (* it190 it81) (- 2))) 2))
      (a!48 (+ a!1
               (* it160 (- 2))
               (* (* it373 it424) (+ it425 (- 1)) (- 2))
               (* it81 (- 2))
               (* (* it373 it424) (+ it589 (- 1)) it425 (- 2))))
      (a!50 (+ a!7
               (* it160 (- 2))
               (* it81 (- 2))
               (* (* it373 it424) (+ it589 (- 1)) it425 (- 2))))
      (a!51 (+ (+ a!7 (* it81 (+ it190 (- 1)) (- 2)))
               (* (* it373 it424) (+ it589 (- 1)) it425 (- 2))
               (- 1)))
      (a!60 (+ a!7
               (* (* it190 it81) (- 2))
               (* (* it373 it424) (+ it589 (- 1)) it425 (- 2))))
      (a!62 (+ (+ a!7 (* (+ it373 (- 1)) it424 (- 2)))
               (* (* it190 it81) (- 2))
               (* (* it373 it424) (+ it589 (- 1)) it425 (- 2))
               (- 1))))
(let ((a!3 (+ a!2
              (* (* it373 it424) (+ it425 (- 1)) (- 2))
              (* (* it190 it81) (- 2))
              (* (* it373 it424) (+ it589 (- 1)) it425 (- 2))))
      (a!9 (+ a!8
              (* it15 (- 2))
              (* (* it190 it81) (- 2))
              (* (* it373 it424) (+ it589 (- 1)) it425 (- 2))))
      (a!12 (+ (+ a!11 (* (* it190 it81) (- 2))) (- 1)))
      (a!16 (+ a!15
               (* it81 (- 2))
               (* (* it373 it424) (+ it589 (- 1)) it425 (- 2))))
      (a!24 (> (+ a!23 (* (* it373 it424) (+ it589 (- 1)) it425 (- 2)) (- 1)) 0))
      (a!26 (> (+ (+ a!25 (* it81 (- 2))) 2) 0))
      (a!28 (+ a!8
               (* (* it190 it81) (- 2))
               (* (* it373 it424) (+ it589 (- 1)) it425 (- 2))))
      (a!32 (> (+ (+ a!25 (* it81 (- 2))) 1) 0))
      (a!35 (> (+ (+ a!11 (* it81 (- 2))) 2) 0))
      (a!43 (+ a!2
               (* it15 (- 2))
               (* (* it373 it424) (+ it425 (- 1)) (- 2))
               (* (* it190 it81) (- 2))
               (* (* it373 it424) (+ it589 (- 1)) it425 (- 2))))
      (a!45 (+ a!44
               (* (* it373 it424) (+ it425 (- 1)) (- 2))
               (* (* it190 it81) (- 2))))
      (a!49 (+ a!44
               (* it15 (- 2))
               (* (* it373 it424) (+ it425 (- 1)) (- 2))
               (* (* it190 it81) (- 2))))
      (a!52 (> (+ (+ a!11 (* it81 (- 2))) 1) 0))
      (a!53 (+ a!23
               (* it81 (- 2))
               (* (* it373 it424) (+ it589 (- 1)) it425 (- 2))))
      (a!54 (> (+ a!15 (* (* it373 it424) (+ it589 (- 1)) it425 (- 2)) (- 1)) 0))
      (a!61 (+ a!23
               (* (* it190 it81) (- 2))
               (* (* it373 it424) (+ it589 (- 1)) it425 (- 2))))
      (a!64 (> (+ a!11 (* (* it190 it81) (- 2))) 0)))
  (and (> (+ a!3 2) 0)
       (> (+ a!5 2) 0)
       (> a!6 0)
       (> (+ a!9 2) 0)
       (> (+ a!10 2) 0)
       (> a!12 0)
       (> (+ a!13 3) 0)
       (> (+ a!14 1) 0)
       (> (+ a!16 2) 0)
       (> (+ a!17 3) 0)
       (> (+ a!18 2) 0)
       (> (+ a!3 1) 0)
       (> a!20 0)
       (> (+ a!21 1) 0)
       (>= (+ it15 (- 1)) 0)
       (> (+ a!22 2) 0)
       (> (+ it7 (- 1)) 0)
       (> (+ a!16 1) 0)
       a!24
       a!26
       (> (+ a!10 3) 0)
       (> it7 0)
       (>= (+ it81 (- 1)) 0)
       (> (+ a!27 3) 0)
       (> (+ a!28 2) 0)
       (> (+ a!11 (- 1)) 0)
       (> (+ a!29 3) 0)
       (> (+ a!30 3) 0)
       (> (+ a!31 2) 0)
       a!32
       (> (+ a!33 3) 0)
       (> (+ a!34 1) 0)
       a!35
       (> (+ a!21 2) 0)
       (> a!36 0)
       (> (+ a!37 2) 0)
       a!38
       (> (+ a!39 1) 0)
       (> (+ a!29 2) 0)
       (>= (+ it589 (- 1)) 0)
       (> a!40 0)
       (> (+ a!41 1) 0)
       (> (+ a!9 3) 0)
       (>= (+ it588 (- 1)) 0)
       (> (+ a!42 2) 0)
       (> (+ a!43 2) 0)
       (> (+ a!45 1) 0)
       (> (+ a!33 2) 0)
       (> (+ a!17 2) 0)
       (> (+ a!42 3) 0)
       (> (+ a!28 1) 0)
       (>= (+ it1 (- 2)) 0)
       a!46
       (> (+ a!37 1) 0)
       (>= (+ it160 (- 1)) 0)
       (> a!47 0)
       (>= (+ it190 (- 1)) 0)
       (>= (+ it424 (- 1)) 0)
       (> (+ a!48 2) 0)
       (> (+ a!49 2) 0)
       (> (+ a!50 2) 0)
       (> (+ a!39 2) 0)
       (> a!51 0)
       (> (+ a!22 1) 0)
       a!52
       (> (+ a!53 1) 0)
       a!54
       (> (+ a!55 3) 0)
       (> (+ a!41 2) 0)
       (> (+ a!13 2) 0)
       a!56
       a!57
       (>= (+ (* it1 (- 1)) 2) 0)
       (>= (+ it425 (- 1)) 0)
       (> (+ a!31 3) 0)
       (>= (+ it373 (- 1)) 0)
       (> (+ a!43 3) 0)
       a!58
       (> (+ a!53 2) 0)
       (> a!59 0)
       (> (+ a!30 2) 0)
       (> (+ a!60 (- 1)) 0)
       (> (+ a!45 2) 0)
       (> (+ a!55 2) 0)
       (> (+ a!5 3) 0)
       (> (+ a!34 2) 0)
       (> a!60 0)
       (> (+ a!61 (- 1)) 0)
       (> (+ a!50 3) 0)
       (> (+ a!48 3) 0)
       (> a!62 0)
       (> a!63 0)
       a!64
       (> (+ a!49 3) 0)
       (> (+ a!25 (- 1)) 0)
       (> (+ a!14 2) 0)
       (> a!61 0)
       (> (+ a!27 2) 0)
       (> (+ a!18 3) 0))))))
(assert (= (+ (* it1 (- 1)) it598) 0))
(assert (= (+ (* (* it589 it190) it160 it425 (- 2))
      (* (* it589 it190) it81 it425 (- 4))
      (* it2 (- 1))
      (* (* it589 it373) it424 it425 (- 4))
      (* (* it589 it373) it15 it425 (- 2))
      it599
      (* it588 it589 (- 2)))
   0))
(assert (= (+ it600
      (* (* it190 it81) (+ it589 (- 1)) it425 2)
      (* it588 2)
      (* (* it190 it81) (+ it425 (- 1)) 2)
      (* it7 (- 1))
      (* (+ it373 (- 1)) it424 2)
      (* it424 2)
      (* it15 2)
      (* (* it373 it424) (+ it425 (- 1)) 2)
      (* (* it190 it81) 2)
      (* (* it373 it424) (+ it589 (- 1)) it425 2)
      (- 1))
   0))
(assert (let ((a!1 (+ 0 (+ (* (* it190 it81) (+ it589 (- 1)) it425 2)
                       (* (* it190 it81) (+ it425 (- 1)) 2)
                       (* it7 (- 1))
                       (* (+ it373 (- 1)) it424 2)
                       (* it424 2)
                       (* (* it373 it424) (+ it425 (- 1)) 2)
                       (* (* it190 it81) 2)
                       (* (* it373 it424) (+ it589 (- 1)) it425 2)
                       (- 1)))))
  (= (+ (+ 0 it601) (* a!1 (exp (- 1) it588) (exp (- 1) it15) (+ 0 2)))
     (+ 0 0))))
(assert (let ((a!1 (+ 0 (+ (* (* it190 it81) (+ it589 (- 1)) it425 2)
                       (* (* it190 it81) (+ it425 (- 1)) 2)
                       (* it7 (- 1))
                       (* (+ it373 (- 1)) it424 2)
                       (* it424 2)
                       (* (* it373 it424) (+ it425 (- 1)) 2)
                       (* (* it190 it81) 2)
                       (* (* it373 it424) (+ it589 (- 1)) it425 2)
                       (- 1)))))
  (= (+ (+ 0 it602) (* a!1 (exp (- 1) it588) (exp (- 1) it15) (+ 0 3)))
     (+ 0 0))))
(assert (let ((a!1 (+ (* (* (* it190 it81) (+ it589 (- 1)) it425) 2)
              (* (* (* it190 it81) (+ it425 (- 1))) 2)
              (* it7 (- 1))
              (* (* (+ it373 (- 1)) it424) 2)
              (* it424 2)))
      (a!2 (* (* (* it373 it424) (+ it589 (- 1)) it425) 2))
      (a!5 (+ 0 (* (* (* it190 it81) (+ it589 (- 1)) it425) 6)))
      (a!6 (+ 0 (* (* (* it190 it81) (+ it425 (- 1))) 6)))
      (a!7 (+ 0 (* (* (+ it373 (- 1)) it424) 6)))
      (a!8 (+ 0 (* (* (* it373 it424) (+ it425 (- 1))) 6)))
      (a!9 (+ 0 (* (* (* it373 it424) (+ it589 (- 1)) it425) 6))))
(let ((a!3 (+ a!1
              (* (* (* it373 it424) (+ it425 (- 1))) 2)
              (* (* it190 it81) 2)
              a!2
              (- 1)))
      (a!4 (+ a!1
              (* it15 2)
              (* (* (* it373 it424) (+ it425 (- 1))) 2)
              (* (* it190 it81) 2)
              a!2
              (- 1))))
(let ((a!10 (+ (* (exp a!3 2) (+ 0 it15) (+ 0 (- 6)))
               (* (+ 0 it588) (exp a!4 2) (+ 0 (- 6)))
               a!5
               (+ 0 (* it588 (- 1)))
               a!6
               (+ 0 (* it7 (- 3)))
               (+ 0 (* it588 a!4 6))
               a!7
               (* (+ 0 a!3) (exp it15 2) (+ 0 (- 12)))
               (* (exp it588 2) (+ 0 a!4) (+ 0 (- 12)))
               (+ 0 (* it424 6))
               (+ 0 (* it15 (- 1)))
               a!8
               (* (exp it15 2) (+ 0 6))
               (+ 0 (* (* it190 it81) 6))
               (* (exp it588 3) (+ 0 (- 8)))
               a!9
               (+ 0 (* a!3 it15 6))
               (* (exp it588 2) (+ 0 6))
               (+ 0 (* it603 3))
               (* (exp it15 3) (+ 0 (- 8)))
               (+ 0 (- 6)))))
  (= a!10 (+ 0 0))))))
(assert (= (+ (* it7 (- 1))
      (* it589 it190 it81 it425 2)
      it604
      (* it589 it373 it424 it425 2))
   0))
(assert (and (> it600 0) (= (+ it598 (- 2)) 0)))
(assert (= (+ it664 (- 2)) 0))
(assert (= (+ it665 (* it599 (- 1)) (- 1)) 0))
(assert (= (+ (* it600 (- 1)) it666 1) 0))
(assert (= (+ it667 (* it601 (- 3)) (* it602 (- 2))) 0))
(assert (= (+ it668 (* it601 5) (* it602 3)) 0))
(assert (= (+ (* (exp it600 2) (+ 0 (- 1))) (+ 0 it669) (+ 0 (* it603 (- 1))))
   (+ 0 0)))
(assert (= (+ (* it604 (- 1)) it670) 0))
(assert (and (> it670 0)
     (= 2 0)
     (>= (+ (* it664 (- 1)) 2) 0)
     (> (+ it670 (- 1)) 0)
     (>= (+ it664 (- 2)) 0)))
(check-sat)
